(declare-const n Int)
(declare-const phi_w_integralized Int)
(declare-const term_to_project_onto0_integralized Int)
(declare-const |a.Top@pos'| Int)
(declare-const j Int)
(declare-const a.Top@pos Int)
(declare-const w_integralized Int)
(declare-const i Int)
(declare-const k Int)
(declare-const |a.Top'| Int)
(declare-const tr Int)
(declare-const |w'0_integralized| Int)
(declare-const |j'| Int)
(declare-const |k'| Int)
(declare-const term_to_project_onto1_integralized Int)
(declare-const a.Top Int)
(declare-const |k'0| Int)
(declare-const a.Top@width Int)
(declare-const term_to_project_onto2_integralized Int)
(declare-const term_to_project_onto4_integralized Int)
(declare-const K Int)
(declare-const term_to_project_onto_integralized Int)
(declare-const |a.Top@width'| Int)
(declare-const store0 Int)
(declare-const |w'_integralized| Int)
(declare-const store1 Int)
(declare-const term_to_project_onto3_integralized Int)
(declare-const store Int)
(declare-const phi_k Int)
(assert (and (<= (+ (- j) 1) 0) (<= (- i) 0) (<= (+ (- n) 1) 0)
               (<= (+ (- n) j) 0)
               (or (and (<= (- i) 0) (<= i 0) (= (+ (- phi_k) k) 0)
                          (= (+ (- phi_w_integralized) tr) 0))
                     (and (or (<= (+ i 1) 0) (<= (+ (- i) 1) 0))
                            (= (+ (- |k'0|) K) 0)
                            (or (and (= K 0)
                                       (= (+ (- |w'0_integralized|) tr) 0)
                                       (= (- |k'0|) 0))
                                  (and (<= (+ (- K) 1) 0) (<= (+ (- i) 1) 0)
                                         (<= (+ (- |k'0|) 1) 0)
                                         (<= (+ |k'0| (- i)) 0)))
                            (<= (- K) 0) (<= (- |k'0|) 0) (<= (+ (- i) 1) 0)
                            (<= (+ (- |k'0|) i) 0) (= (+ |k'0| (- phi_k)) 0)
                            (= (+ |w'0_integralized| (- phi_w_integralized)) 0)))
               (= (+ (- store1) |a.Top@width'|) 0)
               (= (+ (- store0) |a.Top@pos'|) 0)
               (= (+ |w'_integralized| (- phi_w_integralized)) 0)
               (= (+ |k'| (- phi_k)) 0) (= (+ |j'| (- j) -1) 0)
               (= (+ (- store) |a.Top'|) 0)
               (= (+ term_to_project_onto4_integralized
                       (- (+ |a.Top'| (- a.Top)))) 0)
               (= (+ term_to_project_onto3_integralized (- (+ |j'| (- j)))) 0)
               (= (+ term_to_project_onto2_integralized (- (+ |k'| (- k)))) 0)
               (= (+ term_to_project_onto1_integralized
                       (- (+ |w'_integralized| (- w_integralized)))) 0)
               (= (+ term_to_project_onto0_integralized
                       (- (+ |a.Top@pos'| (- a.Top@pos)))) 0)
               (= (+ term_to_project_onto_integralized
                       (- (+ |a.Top@width'| (- a.Top@width)))) 0)))
(check-sat)